SAT
-1 -100 -99 -98 -97 -96 -95 94 61 -48 13 -23 -50 -87 43 54 62 84 58 19 80 -78 4 89 64 -81 67 27 -40 -51 52 -66 -20 -83 41 -11 -75 34 -9 -35 55 -8 -76 57 -71 70 -12 29 21 46 -10 -77 -45 -63 74 -56 22 -33 31 -88 -42 -90 14 6 -5 -28 -39 91 38 36 -72 -69 -37 -30 68 82 -53 93 32 -16 -25 -65 -24 -92 -17 15 73 -79 18 -47 -49 -60 3 2 -26 -86 59 85 -44 7 0
